17	4	3
38	42	46	25	24	32	7	
0	0	0	0	0	5	3	8	4	1	8	3	2	3	4
8	0	8	8	0	4	9	3	9	5	10	3	8	9	10
4	0	0	9	10	10	4	4	5	1	7	1	17
9	5	7	5	5	6	7	6	1	6	10	3	5	6	14
6	0	0	3	0	9	7	4	2	4	9	3	7	13	17
200	1	10	8	4	7	9	1	5	3	2	3	11	13	17
200	1	5	4	0	2	6	1	5	5	5	1	17
100	10	8	3	0	4	5	8	8	9	8	1	16
150	5	10	7	0	5	5	5	10	6	10	2	15	16
250	4	9	9	7	9	4	7	2	5	1	2	12	17
125	8	5	6	0	1	2	10	2	6	2	1	17
25	9	0	1	1	3	7	8	3	2	2	1	17
2	0	7	4	6	7	6	6	5	3	5	1	17
5	9	0	4	4	3	7	9	7	6	4	1	17
9	6	10	10	0	7	4	8	4	6	3	1	17
10	9	4	2	7	4	6	4	3	7	9	1	17
0	0	0	0	0	5	10	6	3	3	7	0
